14
0 797 905 540 463 364 896 679 648 691 999 574 572 573 
797 0 622 863 857 976 469 846 278 489 790 999 559 801 
905 622 0 675 652 965 987 573 491 279 582 962 491 659 
540 863 675 0 903 321 337 581 776 811 321 275 742 271 
463 857 652 903 0 750 593 456 423 384 941 741 438 555 
364 976 965 321 750 0 976 348 382 888 833 693 330 320 
896 469 987 337 593 976 0 321 480 476 901 842 917 799 
679 846 573 581 456 348 321 0 594 839 557 884 636 731 
648 278 491 776 423 382 480 594 0 447 776 842 714 786 
691 489 279 811 384 888 476 839 447 0 622 805 441 813 
999 790 582 321 941 833 901 557 776 622 0 608 375 355 
574 999 962 275 741 693 842 884 842 805 608 0 414 677 
572 559 491 742 438 330 917 636 714 441 375 414 0 619 
573 801 659 271 555 320 799 731 786 813 355 677 619 0 
